0 5 15 20 37 36 47 48 0
0 30 21 28 22 62 2 0
0 35 14 53 11 38 58 26 0
0 7 19 54 13 57 29 45 0
0 17 44 24 49 63 16 51 0
0 40 32 9 39 12 0
0 6 33 1 43 42 41 56 23 0
0 4 27 52 8 46 34 0
0 3 50 18 55 25 31 10 0
